sat
(model 
  (define-fun p41 () Int
    28)
  (define-fun p63 () Int
    32)
  (define-fun p43 () Int
    22)
  (define-fun p46 () Int
    3)
  (define-fun p33 () Int
    21)
  (define-fun p56 () Int
    2)
  (define-fun p62 () Int
    31)
  (define-fun p13 () Int
    15)
  (define-fun p12 () Int
    16)
  (define-fun p31 () Int
    27)
  (define-fun p36 () Int
    4)
  (define-fun p21 () Int
    18)
  (define-fun p51 () Int
    29)
  (define-fun p14 () Int
    14)
  (define-fun p25 () Int
    8)
  (define-fun p34 () Int
    12)
  (define-fun p16 () Int
    6)
  (define-fun p26 () Int
    5)
  (define-fun p61 () Int
    30)
  (define-fun p22 () Int
    19)
  (define-fun p55 () Int
    35)
  (define-fun p64 () Int
    33)
  (define-fun p66 () Int
    1)
  (define-fun p11 () Int
    17)
  (define-fun p44 () Int
    11)
  (define-fun p52 () Int
    24)
  (define-fun p15 () Int
    7)
  (define-fun p65 () Int
    34)
  (define-fun p77 () Int
    0)
  (define-fun p76 () Int
    0)
  (define-fun p75 () Int
    0)
  (define-fun p74 () Int
    0)
  (define-fun p73 () Int
    0)
  (define-fun p72 () Int
    0)
  (define-fun p71 () Int
    0)
  (define-fun p70 () Int
    0)
  (define-fun p67 () Int
    0)
  (define-fun p60 () Int
    0)
  (define-fun p57 () Int
    0)
  (define-fun p50 () Int
    0)
  (define-fun p47 () Int
    0)
  (define-fun p40 () Int
    0)
  (define-fun p37 () Int
    0)
  (define-fun p30 () Int
    0)
  (define-fun p27 () Int
    0)
  (define-fun p20 () Int
    0)
  (define-fun p17 () Int
    0)
  (define-fun p10 () Int
    0)
  (define-fun p07 () Int
    0)
  (define-fun p06 () Int
    0)
  (define-fun p05 () Int
    0)
  (define-fun p04 () Int
    0)
  (define-fun p03 () Int
    0)
  (define-fun p02 () Int
    0)
  (define-fun p01 () Int
    0)
  (define-fun p00 () Int
    0)
  (define-fun p54 () Int
    36)
  (define-fun p53 () Int
    23)
  (define-fun p45 () Int
    10)
  (define-fun p42 () Int
    25)
  (define-fun p35 () Int
    9)
  (define-fun p32 () Int
    26)
  (define-fun p24 () Int
    13)
  (define-fun p23 () Int
    20)
)
